************************************************************************
file with basedata            : j60_25.bas
initial value random generator: 1873067979
************************************************************************
projects                      :  1
jobs (incl. supersource/sink ):  62
horizon                       :  305
RESOURCES
  - renewable                 :  4   R
  - nonrenewable              :  0   N
  - doubly constrained        :  0   D
************************************************************************
PROJECT INFORMATION:
pronr.  #jobs rel.date duedate tardcost  MPM-Time
    1     60      0       65       45       65
************************************************************************
PRECEDENCE RELATIONS:
jobnr.    #modes  #successors   successors
   1        1          3           2   3   4
   2        1          2           8  50
   3        1          3           5   9  20
   4        1          1          39
   5        1          3           6  11  32
   6        1          3           7  10  14
   7        1          3          24  29  55
   8        1          3          12  29  60
   9        1          1          15
  10        1          2          13  16
  11        1          1          17
  12        1          1          33
  13        1          1          18
  14        1          2          37  46
  15        1          1          27
  16        1          3          19  22  23
  17        1          3          26  31  36
  18        1          1          45
  19        1          3          21  25  34
  20        1          1          57
  21        1          1          51
  22        1          2          30  35
  23        1          3          38  42  52
  24        1          1          42
  25        1          2          43  57
  26        1          1          28
  27        1          1          47
  28        1          2          40  54
  29        1          2          41  44
  30        1          1          53
  31        1          1          56
  32        1          2          48  53
  33        1          1          61
  34        1          1          35
  35        1          1          37
  36        1          1          44
  37        1          1          51
  38        1          1          44
  39        1          2          47  49
  40        1          2          46  52
  41        1          1          46
  42        1          1          47
  43        1          1          54
  44        1          1          61
  45        1          1          55
  46        1          1          56
  47        1          1          59
  48        1          2          52  55
  49        1          1          54
  50        1          1          53
  51        1          2          58  61
  52        1          1          57
  53        1          1          60
  54        1          1          58
  55        1          1          56
  56        1          1          58
  57        1          1          59
  58        1          1          59
  59        1          1          62
  60        1          1          62
  61        1          1          62
  62        1          0        
************************************************************************
REQUESTS/DURATIONS:
jobnr. mode duration  R 1  R 2  R 3  R 4
------------------------------------------------------------------------
  1      1     0       0    0    0    0
  2      1     3      10    7    0    0
  3      1     6       9    0    4    8
  4      1     3       8    8    4    4
  5      1     2       3    3    0    9
  6      1     7       2    7    2    2
  7      1     1       2    0    2    2
  8      1     8       4    1    4    7
  9      1     4       0    4    4    5
 10      1     8       0   10    0    0
 11      1     6       4    0    1    3
 12      1     2       5    3    3    3
 13      1     7       8    9    1    8
 14      1     8       8    4    0    3
 15      1     8       5    1    8    8
 16      1     6       0    4   10    7
 17      1     3       8    7    0    3
 18      1     7       9    6    4    9
 19      1     9       2    8    0    0
 20      1     4       0    5    0    6
 21      1     9       5    7    7    9
 22      1     4       0    0    3    9
 23      1     6       5    8    6    4
 24      1     6       6    3    0    2
 25      1     8       0    5    1    8
 26      1     4       4    2    3    0
 27      1     5       5    1    4    2
 28      1     6       0    0    0    9
 29      1     9       0    0    0    5
 30      1     4       0   10    9   10
 31      1     1       2    2    8   10
 32      1     1       6    7    5    6
 33      1     3       8    3    8    0
 34      1     9       4    8    1   10
 35      1     3       0    5    4    9
 36      1     7       1    0    0    4
 37      1     2       0    8    5    7
 38      1     9       0    0    1    3
 39      1     8       0    3    6    0
 40      1     7       1    0    0    4
 41      1     5       0    6    2    6
 42      1     9       3    6    1    2
 43      1     5      10    7    0    4
 44      1     1       5    0    8    2
 45      1     2      10    5    3    0
 46      1     1       1    0    4    0
 47      1     8       3    5    0    2
 48      1     1       8    0   10    6
 49      1     8       0    4    7    0
 50      1     1       3    1    7    5
 51      1     3       2    0    2    8
 52      1    10       8    8    9    0
 53      1     2       0    3    9    2
 54      1     4       8    0    5    2
 55      1     1       2    5    4   10
 56      1     3       1    1    0    3
 57      1    10       7    7    1    8
 58      1     9       7    0    5    9
 59      1     1       8    9    1    3
 60      1     5       9    0    0    5
 61      1     3       4    4    4    0
 62      1     0       0    0    0    0
************************************************************************
RESOURCEAVAILABILITIES:
  R 1  R 2  R 3  R 4
   14   16   14   17
************************************************************************
